units		metal
boundary	p p p
atom_style	atomic

lattice		fcc 4.15691
region		box block 0 1 0 1 0 1
create_box	1 box
create_atoms 1 box

pair_style	eam/fs
pair_coeff	* * Al.lammps.EAM Al

variable	atom_pe equal pe/atoms
variable	atom_vol equal vol/atoms

thermo_style custom atoms pe v_atom_pe vol v_atom_vol press pxx pyy pzz pxy pxz pyz

run 		0
